106 89 107 89 107 89 108 89 109 89 106 90 109 90 110 90 111 91 112 92 113 93 138 94 114 95 140 95 100 96 115 96 141 96 142 96 117 97 143 97 98 98 145 99 95 101 122 102 94 103 148 104 92 105 90 108 126 109 151 109 88 110 85 113 128 113 154 114 130 117 81 120 119 120 132 120 133 121 77 126 162 128 74 130 163 130 163 132 163 132 164 132 165 132 165 132 166 132 162 133 163 133 166 133 166 133 155 134 157 134 159 134 163 134 163 134 165 134 166 134 166 134 71 135 151 135 154 135 164 135 164 135 165 135 147 136 149 136 166 136 85 137 88 137 91 137 93 137 95 137 96 137 99 137 102 137 142 137 143 137 83 138 105 138 68 139 80 139 132 139 168 139 75 140 132 140 144 140 66 141 70 141 118 141 121 141 131 141 169 141 65 142 122 142 123 142 125 142 126 142 128 142 65 143 65 143 67 143 64 144 147 146 171 146 147 147 135 149 135 149 151 149 172 149 172 149 136 151 137 151 138 151 140 151 144 151 165 155 167 155 161 156
